Version identifier: 22.1.0.0 | 2022-03-09 | 1a383f8ce
CPXPARAM_Read_DataCheck                          1
CPXPARAM_Threads                                 1
CPXPARAM_TimeLimit                               3600
Tried aggregator 2 times.
MIP Presolve eliminated 967 rows and 386 columns.
MIP Presolve modified 4270 coefficients.
Aggregator did 117 substitutions.
Reduced MIP has 1112 rows, 247 columns, and 6116 nonzeros.
Reduced MIP has 196 binaries, 0 generals, 0 SOSs, and 0 indicators.
Presolve time = 0.01 sec. (12.73 ticks)
Found incumbent of value 17.490000 after 0.02 sec. (18.35 ticks)
Probing time = 0.00 sec. (2.85 ticks)
Tried aggregator 1 time.
Detecting symmetries...
Reduced MIP has 1112 rows, 247 columns, and 6116 nonzeros.
Reduced MIP has 196 binaries, 0 generals, 0 SOSs, and 0 indicators.
Presolve time = 0.00 sec. (3.09 ticks)
Probing time = 0.00 sec. (3.28 ticks)
Clique table members: 1864.
MIP emphasis: balance optimality and feasibility.
MIP search method: dynamic search.
Parallel mode: none, using 1 thread.
Root relaxation solution time = 0.00 sec. (3.56 ticks)

        Nodes                                         Cuts/
   Node  Left     Objective  IInf  Best Integer    Best Bound    ItCnt     Gap

*     0+    0                           17.4900        9.1900            47.46%
      0     0        9.1900    38       17.4900        9.1900       85   47.46%
      0     0        9.1900    19       17.4900      Cuts: 60      148   47.46%
      0     0        9.1900    35       17.4900     Cuts: 101      230   47.46%
      0     0        9.1900    14       17.4900       Cuts: 7      252   47.46%
      0     0        9.1900    24       17.4900      Cuts: 71      307   47.46%
*     0+    0                            9.1900        9.1900             0.00%
      0     0  -1.00000e+75     0        9.1900        9.1900      307    0.00%
      0     0        cutoff              9.1900        9.1900      307    0.00%
Elapsed time = 0.22 sec. (230.78 ticks, tree = 0.01 MB, solutions = 2)

GUB cover cuts applied:  3
Clique cuts applied:  17
Flow cuts applied:  2
Mixed integer rounding cuts applied:  4
Zero-half cuts applied:  1

Root node processing (before b&c):
  Real time             =    0.22 sec. (230.84 ticks)
Sequential b&c:
  Real time             =    0.00 sec. (0.00 ticks)
                          ------------
Total (root+branch&cut) =    0.22 sec. (230.84 ticks)
